NAME (null)_copy
ROWS
 N  OBJ
 E  c0      
 E  c1      
 E  c2      
 E  c3      
 E  c4      
 E  c5      
 E  c6      
 E  c7      
 E  c8      
 E  c9      
 E  c10     
 E  c11     
 E  c12     
 E  c13     
 E  c14     
 E  c15     
 L  c16     
 L  c17     
 L  c18     
 L  c19     
 L  c20     
 L  c21     
 L  c22     
 L  c23     
 L  c24     
 L  c25     
 L  c26     
 L  c27     
 E  c28     
 E  c29     
 E  c30     
 E  c31     
 E  c32     
 E  c33     
 E  c34     
 E  c35     
 E  c36     
 L  c37     
 L  c38     
 L  c39     
 L  c40     
 L  c41     
 L  c42     
 L  c43     
 L  c44     
 L  c45     
 L  c46     
 L  c47     
 L  c48     
 L  c49     
 L  c50     
 L  c51     
 L  c52     
 L  c53     
 L  c54     
 L  c55     
 L  c56     
 L  c57     
 L  c58     
 L  c59     
 L  c60     
 L  c61     
 L  c62     
 L  c63     
 L  c64     
 L  c65     
 L  c66     
 L  c67     
 L  c68     
 L  c69     
 L  c70     
 L  c71     
 L  c72     
 L  c73     
 L  c74     
 L  c75     
 L  c76     
 L  c77     
 L  c78     
 L  c79     
 L  c80     
 L  c81     
 L  c82     
 L  c83     
 L  c84     
 L  c85     
 L  c86     
 L  c87     
 L  c88     
 L  c89     
 L  c90     
 L  c91     
 L  c92     
 L  c93     
 L  c94     
 L  c95     
 L  c96     
 L  c97     
 L  c98     
 L  c99     
 L  c100    
 L  c101    
 L  c102    
 L  c103    
 L  c104    
 L  c105    
 L  c106    
 L  c107    
 L  c108    
 L  c109    
 L  c110    
 L  c111    
 L  c112    
 L  c113    
 L  c114    
 L  c115    
 L  c116    
 L  c117    
 L  c118    
 L  c119    
 L  c120    
 L  c121    
 L  c122    
 L  c123    
 L  c124    
 L  c125    
 L  c126    
 L  c127    
 L  c128    
 L  c129    
 L  c130    
 L  c131    
 L  c132    
 L  c133    
 L  c134    
 L  c135    
 L  c136    
 L  c137    
 L  c138    
 L  c139    
 L  c140    
 L  c141    
 L  c142    
 L  c143    
 L  c144    
 L  c145    
 L  c146    
 L  c147    
 L  c148    
 L  c149    
 L  c150    
 L  c151    
 L  c152    
 L  c153    
 L  c154    
 L  c155    
 L  c156    
COLUMNS
    MARKER    'MARKER'                 'INTORG'
    x[0,0,0]  c0        1
    x[0,0,0]  c3        -1
    x[0,0,0]  c16       1
    x[0,0,0]  c37       4
    x[0,0,0]  c49       4
    x[0,0,0]  c58       4
    x[0,0,0]  c107      -1
    x[0,0,0]  c109      -1
    x[0,0,0]  c118      1
    x[0,0,0]  c133      1
    x[0,0,0]  c148      -1
    x[0,0,0]  c152      -1
    x[0,0,0]  c156      -1
    x[0,0,1]  c0        1
    x[0,0,1]  c4        -1
    x[0,0,1]  c17       1
    x[0,0,1]  c38       4
    x[0,0,1]  c52       4
    x[0,0,1]  c62       4
    x[0,0,1]  c111      -1
    x[0,0,1]  c113      -1
    x[0,0,1]  c122      1
    x[0,0,1]  c137      1
    x[0,0,1]  c152      -1
    x[0,0,1]  c156      -1
    x[0,0,2]  c0        1
    x[0,0,2]  c18       1
    x[0,0,2]  c39       4
    x[0,0,2]  c55       4
    x[0,0,2]  c66       4
    x[0,0,2]  c115      -1
    x[0,0,2]  c117      -1
    x[0,0,2]  c126      1
    x[0,0,2]  c141      1
    x[0,0,2]  c156      -1
    x[0,1,0]  c0        1
    x[0,1,0]  c3        -1
    x[0,1,0]  c19       1
    x[0,1,0]  c40       4
    x[0,1,0]  c50       4
    x[0,1,0]  c59       4
    x[0,1,0]  c82       -1
    x[0,1,0]  c119      1
    x[0,1,0]  c134      1
    x[0,1,0]  c148      -1
    x[0,1,0]  c152      -1
    x[0,1,0]  c156      -1
    x[0,1,1]  c0        1
    x[0,1,1]  c4        -1
    x[0,1,1]  c20       1
    x[0,1,1]  c41       4
    x[0,1,1]  c53       4
    x[0,1,1]  c63       4
    x[0,1,1]  c86       -1
    x[0,1,1]  c123      1
    x[0,1,1]  c138      1
    x[0,1,1]  c152      -1
    x[0,1,1]  c156      -1
    x[0,1,2]  c0        1
    x[0,1,2]  c21       1
    x[0,1,2]  c42       4
    x[0,1,2]  c56       4
    x[0,1,2]  c67       4
    x[0,1,2]  c90       -1
    x[0,1,2]  c127      1
    x[0,1,2]  c142      1
    x[0,1,2]  c156      -1
    x[1,0,0]  c1        1
    x[1,0,0]  c5        -1
    x[1,0,0]  c22       1
    x[1,0,0]  c43       4
    x[1,0,0]  c60       4
    x[1,0,0]  c82       -1
    x[1,0,0]  c95       -1
    x[1,0,0]  c97       -1
    x[1,0,0]  c107      -1
    x[1,0,0]  c109      -1
    x[1,0,0]  c120      1
    x[1,0,0]  c135      1
    x[1,0,0]  c145      -1
    x[1,0,0]  c146      -1
    x[1,0,0]  c148      -1
    x[1,0,0]  c149      -1
    x[1,0,0]  c150      -1
    x[1,0,0]  c152      -1
    x[1,0,0]  c153      -1
    x[1,0,0]  c154      -1
    x[1,0,0]  c156      -1
    x[1,0,1]  c1        1
    x[1,0,1]  c6        -1
    x[1,0,1]  c23       1
    x[1,0,1]  c44       4
    x[1,0,1]  c64       4
    x[1,0,1]  c86       -1
    x[1,0,1]  c99       -1
    x[1,0,1]  c101      -1
    x[1,0,1]  c111      -1
    x[1,0,1]  c113      -1
    x[1,0,1]  c124      1
    x[1,0,1]  c139      1
    x[1,0,1]  c149      -1
    x[1,0,1]  c150      -1
    x[1,0,1]  c152      -1
    x[1,0,1]  c153      -1
    x[1,0,1]  c154      -1
    x[1,0,1]  c156      -1
    x[1,0,2]  c1        1
    x[1,0,2]  c24       1
    x[1,0,2]  c45       4
    x[1,0,2]  c68       4
    x[1,0,2]  c90       -1
    x[1,0,2]  c103      -1
    x[1,0,2]  c105      -1
    x[1,0,2]  c115      -1
    x[1,0,2]  c117      -1
    x[1,0,2]  c128      1
    x[1,0,2]  c143      1
    x[1,0,2]  c153      -1
    x[1,0,2]  c154      -1
    x[1,0,2]  c156      -1
    x[2,0,0]  c2        1
    x[2,0,0]  c3        -1
    x[2,0,0]  c10       1
    x[2,0,0]  c13       1
    x[2,0,0]  c25       1
    x[2,0,0]  c46       4
    x[2,0,0]  c51       4
    x[2,0,0]  c61       4
    x[2,0,0]  c82       -1
    x[2,0,0]  c121      1
    x[2,0,0]  c136      1
    x[2,0,1]  c2        1
    x[2,0,1]  c4        -1
    x[2,0,1]  c13       1
    x[2,0,1]  c26       1
    x[2,0,1]  c47       4
    x[2,0,1]  c54       4
    x[2,0,1]  c65       4
    x[2,0,1]  c86       -1
    x[2,0,1]  c125      1
    x[2,0,1]  c140      1
    x[2,0,2]  c2        1
    x[2,0,2]  c27       1
    x[2,0,2]  c48       4
    x[2,0,2]  c57       4
    x[2,0,2]  c69       4
    x[2,0,2]  c90       -1
    x[2,0,2]  c129      1
    x[2,0,2]  c144      1
    y[0,0,0]  c70       -1
    y[0,0,0]  c95       -1
    y[0,0,0]  c96       -1
    y[0,0,0]  c97       -1
    y[0,0,0]  c130      1
    y[0,0,0]  c133      -1
    y[0,0,0]  c134      -1
    y[0,0,0]  c135      -1
    y[0,0,0]  c136      -1
    y[0,0,0]  c145      10
    y[0,0,1]  c74       -1
    y[0,0,1]  c99       -1
    y[0,0,1]  c100      -1
    y[0,0,1]  c101      -1
    y[0,0,1]  c131      1
    y[0,0,1]  c137      -1
    y[0,0,1]  c138      -1
    y[0,0,1]  c139      -1
    y[0,0,1]  c140      -1
    y[0,0,1]  c149      10
    y[0,0,2]  c78       -1
    y[0,0,2]  c103      -1
    y[0,0,2]  c104      -1
    y[0,0,2]  c105      -1
    y[0,0,2]  c132      1
    y[0,0,2]  c141      -1
    y[0,0,2]  c142      -1
    y[0,0,2]  c143      -1
    y[0,0,2]  c144      -1
    y[0,0,2]  c153      10
    y[0,1,0]  c71       -1
    y[0,1,0]  c72       -1
    y[0,1,0]  c73       -1
    y[0,1,0]  c130      1
    y[0,1,0]  c133      -1
    y[0,1,0]  c134      -1
    y[0,1,0]  c135      -1
    y[0,1,0]  c136      -1
    y[0,1,0]  c146      15
    y[0,1,1]  c75       -1
    y[0,1,1]  c76       -1
    y[0,1,1]  c77       -1
    y[0,1,1]  c131      1
    y[0,1,1]  c137      -1
    y[0,1,1]  c138      -1
    y[0,1,1]  c139      -1
    y[0,1,1]  c140      -1
    y[0,1,1]  c150      15
    y[0,1,2]  c79       -1
    y[0,1,2]  c80       -1
    y[0,1,2]  c81       -1
    y[0,1,2]  c132      1
    y[0,1,2]  c141      -1
    y[0,1,2]  c142      -1
    y[0,1,2]  c143      -1
    y[0,1,2]  c144      -1
    y[0,1,2]  c154      15
    y[1,0,0]  c72       -1
    y[1,0,0]  c130      1
    y[1,0,0]  c135      -1
    y[1,0,0]  c147      12
    y[1,0,1]  c76       -1
    y[1,0,1]  c131      1
    y[1,0,1]  c139      -1
    y[1,0,1]  c151      12
    y[1,0,2]  c80       -1
    y[1,0,2]  c132      1
    y[1,0,2]  c143      -1
    y[1,0,2]  c155      12
    y[2,0,0]  c71       -1
    y[2,0,0]  c72       -1
    y[2,0,0]  c73       -1
    y[2,0,0]  c130      1
    y[2,0,0]  c133      -1
    y[2,0,0]  c134      -1
    y[2,0,0]  c135      -1
    y[2,0,0]  c136      -1
    y[2,0,0]  c148      15
    y[2,0,1]  c75       -1
    y[2,0,1]  c76       -1
    y[2,0,1]  c77       -1
    y[2,0,1]  c131      1
    y[2,0,1]  c137      -1
    y[2,0,1]  c138      -1
    y[2,0,1]  c139      -1
    y[2,0,1]  c140      -1
    y[2,0,1]  c152      15
    y[2,0,2]  c79       -1
    y[2,0,2]  c80       -1
    y[2,0,2]  c81       -1
    y[2,0,2]  c132      1
    y[2,0,2]  c141      -1
    y[2,0,2]  c142      -1
    y[2,0,2]  c143      -1
    y[2,0,2]  c144      -1
    y[2,0,2]  c156      15
    z1[0,0,0]  c70       1
    z1[0,0,0]  c118      -1
    z2[0,0,0]  c82       6
    z2[0,0,0]  c118      -1
    z3[0,0,0]  c94       2
    z3[0,0,0]  c118      -1
    z3[0,0,0]  c145      1
    z3[0,0,0]  c146      1
    z3[0,0,0]  c147      1
    z3[0,0,0]  c148      1
    z4[0,0,0]  c106      2
    z4[0,0,0]  c118      -1
    z4[0,0,0]  c145      1
    z4[0,0,0]  c146      1
    z4[0,0,0]  c147      1
    z4[0,0,0]  c148      1
    z1[0,0,1]  c74       1
    z1[0,0,1]  c122      -1
    z2[0,0,1]  c86       6
    z2[0,0,1]  c122      -1
    z3[0,0,1]  c98       2
    z3[0,0,1]  c122      -1
    z3[0,0,1]  c149      1
    z3[0,0,1]  c150      1
    z3[0,0,1]  c151      1
    z3[0,0,1]  c152      1
    z4[0,0,1]  c110      2
    z4[0,0,1]  c122      -1
    z4[0,0,1]  c149      1
    z4[0,0,1]  c150      1
    z4[0,0,1]  c151      1
    z4[0,0,1]  c152      1
    z1[0,0,2]  c78       1
    z1[0,0,2]  c126      -1
    z2[0,0,2]  c90       6
    z2[0,0,2]  c126      -1
    z3[0,0,2]  c102      2
    z3[0,0,2]  c126      -1
    z3[0,0,2]  c153      1
    z3[0,0,2]  c154      1
    z3[0,0,2]  c155      1
    z3[0,0,2]  c156      1
    z4[0,0,2]  c114      2
    z4[0,0,2]  c126      -1
    z4[0,0,2]  c153      1
    z4[0,0,2]  c154      1
    z4[0,0,2]  c155      1
    z4[0,0,2]  c156      1
    z1[0,1,0]  c71       1
    z1[0,1,0]  c119      -1
    z2[0,1,0]  c83       6
    z2[0,1,0]  c119      -1
    z3[0,1,0]  c82       1
    z3[0,1,0]  c95       2
    z3[0,1,0]  c119      -1
    z3[0,1,0]  c145      1
    z3[0,1,0]  c146      1
    z3[0,1,0]  c147      1
    z3[0,1,0]  c148      1
    z4[0,1,0]  c82       1
    z4[0,1,0]  c107      2
    z4[0,1,0]  c119      -1
    z4[0,1,0]  c145      1
    z4[0,1,0]  c146      1
    z4[0,1,0]  c147      1
    z4[0,1,0]  c148      1
    z1[0,1,1]  c75       1
    z1[0,1,1]  c123      -1
    z2[0,1,1]  c87       6
    z2[0,1,1]  c123      -1
    z3[0,1,1]  c86       1
    z3[0,1,1]  c99       2
    z3[0,1,1]  c123      -1
    z3[0,1,1]  c149      1
    z3[0,1,1]  c150      1
    z3[0,1,1]  c151      1
    z3[0,1,1]  c152      1
    z4[0,1,1]  c86       1
    z4[0,1,1]  c111      2
    z4[0,1,1]  c123      -1
    z4[0,1,1]  c149      1
    z4[0,1,1]  c150      1
    z4[0,1,1]  c151      1
    z4[0,1,1]  c152      1
    z1[0,1,2]  c79       1
    z1[0,1,2]  c127      -1
    z2[0,1,2]  c91       6
    z2[0,1,2]  c127      -1
    z3[0,1,2]  c90       1
    z3[0,1,2]  c103      2
    z3[0,1,2]  c127      -1
    z3[0,1,2]  c153      1
    z3[0,1,2]  c154      1
    z3[0,1,2]  c155      1
    z3[0,1,2]  c156      1
    z4[0,1,2]  c90       1
    z4[0,1,2]  c115      2
    z4[0,1,2]  c127      -1
    z4[0,1,2]  c153      1
    z4[0,1,2]  c154      1
    z4[0,1,2]  c155      1
    z4[0,1,2]  c156      1
    z1[1,0,0]  c72       1
    z1[1,0,0]  c120      -1
    z2[1,0,0]  c84       6
    z2[1,0,0]  c120      -1
    z3[1,0,0]  c82       1
    z3[1,0,0]  c96       2
    z3[1,0,0]  c120      -1
    z3[1,0,0]  c145      1
    z3[1,0,0]  c146      1
    z3[1,0,0]  c147      1
    z3[1,0,0]  c148      1
    z4[1,0,0]  c82       1
    z4[1,0,0]  c108      2
    z4[1,0,0]  c120      -1
    z4[1,0,0]  c145      1
    z4[1,0,0]  c146      1
    z4[1,0,0]  c147      1
    z4[1,0,0]  c148      1
    z1[1,0,1]  c76       1
    z1[1,0,1]  c124      -1
    z2[1,0,1]  c88       6
    z2[1,0,1]  c124      -1
    z3[1,0,1]  c86       1
    z3[1,0,1]  c100      2
    z3[1,0,1]  c124      -1
    z3[1,0,1]  c149      1
    z3[1,0,1]  c150      1
    z3[1,0,1]  c151      1
    z3[1,0,1]  c152      1
    z4[1,0,1]  c86       1
    z4[1,0,1]  c112      2
    z4[1,0,1]  c124      -1
    z4[1,0,1]  c149      1
    z4[1,0,1]  c150      1
    z4[1,0,1]  c151      1
    z4[1,0,1]  c152      1
    z1[1,0,2]  c80       1
    z1[1,0,2]  c128      -1
    z2[1,0,2]  c92       6
    z2[1,0,2]  c128      -1
    z3[1,0,2]  c90       1
    z3[1,0,2]  c104      2
    z3[1,0,2]  c128      -1
    z3[1,0,2]  c153      1
    z3[1,0,2]  c154      1
    z3[1,0,2]  c155      1
    z3[1,0,2]  c156      1
    z4[1,0,2]  c90       1
    z4[1,0,2]  c116      2
    z4[1,0,2]  c128      -1
    z4[1,0,2]  c153      1
    z4[1,0,2]  c154      1
    z4[1,0,2]  c155      1
    z4[1,0,2]  c156      1
    z1[2,0,0]  c73       1
    z1[2,0,0]  c121      -1
    z2[2,0,0]  c85       6
    z2[2,0,0]  c121      -1
    z3[2,0,0]  c82       1
    z3[2,0,0]  c97       2
    z3[2,0,0]  c121      -1
    z3[2,0,0]  c145      1
    z3[2,0,0]  c146      1
    z3[2,0,0]  c147      1
    z3[2,0,0]  c148      1
    z4[2,0,0]  c82       1
    z4[2,0,0]  c109      2
    z4[2,0,0]  c121      -1
    z4[2,0,0]  c145      1
    z4[2,0,0]  c146      1
    z4[2,0,0]  c147      1
    z4[2,0,0]  c148      1
    z1[2,0,1]  c77       1
    z1[2,0,1]  c125      -1
    z2[2,0,1]  c89       6
    z2[2,0,1]  c125      -1
    z3[2,0,1]  c86       1
    z3[2,0,1]  c101      2
    z3[2,0,1]  c125      -1
    z3[2,0,1]  c149      1
    z3[2,0,1]  c150      1
    z3[2,0,1]  c151      1
    z3[2,0,1]  c152      1
    z4[2,0,1]  c86       1
    z4[2,0,1]  c113      2
    z4[2,0,1]  c125      -1
    z4[2,0,1]  c149      1
    z4[2,0,1]  c150      1
    z4[2,0,1]  c151      1
    z4[2,0,1]  c152      1
    z1[2,0,2]  c81       1
    z1[2,0,2]  c129      -1
    z2[2,0,2]  c93       6
    z2[2,0,2]  c129      -1
    z3[2,0,2]  c90       1
    z3[2,0,2]  c105      2
    z3[2,0,2]  c129      -1
    z3[2,0,2]  c153      1
    z3[2,0,2]  c154      1
    z3[2,0,2]  c155      1
    z3[2,0,2]  c156      1
    z4[2,0,2]  c90       1
    z4[2,0,2]  c117      2
    z4[2,0,2]  c129      -1
    z4[2,0,2]  c153      1
    z4[2,0,2]  c154      1
    z4[2,0,2]  c155      1
    z4[2,0,2]  c156      1
    u[0,0,0]  c16       -1
    u[0,0,0]  c28       1
    u[0,0,1]  c17       -1
    u[0,0,1]  c31       1
    u[0,0,2]  c18       -1
    u[0,0,2]  c34       1
    u[0,1,0]  c7        -1
    u[0,1,0]  c19       -1
    u[0,1,0]  c28       1
    u[0,1,1]  c10       -1
    u[0,1,1]  c20       -1
    u[0,1,1]  c31       1
    u[0,1,2]  c13       -1
    u[0,1,2]  c21       -1
    u[0,1,2]  c34       1
    u[1,0,0]  c22       -1
    u[1,0,0]  c29       1
    u[1,0,1]  c23       -1
    u[1,0,1]  c32       1
    u[1,0,2]  c24       -1
    u[1,0,2]  c35       1
    u[2,0,0]  c25       -1
    u[2,0,0]  c30       1
    u[2,0,1]  c26       -1
    u[2,0,1]  c33       1
    u[2,0,2]  c27       -1
    u[2,0,2]  c36       1
    MARKER    'MARKER'                 'INTEND'
    h[0,0]    c3        1
    h[0,0]    c49       -1
    h[0,0]    c50       -1
    h[0,0]    c51       -1
    h[0,1]    c3        -1
    h[0,1]    c4        1
    h[0,1]    c52       -1
    h[0,1]    c53       -1
    h[0,1]    c54       -1
    h[0,2]    c4        -1
    h[0,2]    c55       -1
    h[0,2]    c56       -1
    h[0,2]    c57       -1
    h[1,0]    c5        1
    h[1,0]    c58       -1
    h[1,0]    c59       -1
    h[1,0]    c60       -1
    h[1,0]    c61       -1
    h[1,1]    c5        -1
    h[1,1]    c6        1
    h[1,1]    c62       -1
    h[1,1]    c63       -1
    h[1,1]    c64       -1
    h[1,1]    c65       -1
    h[1,2]    c6        -1
    h[1,2]    c66       -1
    h[1,2]    c67       -1
    h[1,2]    c68       -1
    h[1,2]    c69       -1
    e[0]      OBJ       1
    e[0]      c145      -1
    e[0]      c146      -1
    e[0]      c147      -1
    e[0]      c148      -1
    e[1]      OBJ       1
    e[1]      c149      -1
    e[1]      c150      -1
    e[1]      c151      -1
    e[1]      c152      -1
    e[2]      OBJ       1
    e[2]      c153      -1
    e[2]      c154      -1
    e[2]      c155      -1
    e[2]      c156      -1
RHS
    RHS1      c0        1
    RHS1      c1        1
    RHS1      c2        1
    RHS1      c28       1
    RHS1      c29       1
    RHS1      c30       1
    RHS1      c31       1
    RHS1      c32       1
    RHS1      c33       1
    RHS1      c34       1
    RHS1      c35       1
    RHS1      c36       1
    RHS1      c37       6
    RHS1      c38       6
    RHS1      c39       6
    RHS1      c40       7
    RHS1      c41       7
    RHS1      c42       7
    RHS1      c43       7
    RHS1      c44       7
    RHS1      c45       7
    RHS1      c46       7
    RHS1      c47       7
    RHS1      c48       7
    RHS1      c49       2
    RHS1      c50       3
    RHS1      c51       3
    RHS1      c52       2
    RHS1      c53       3
    RHS1      c54       3
    RHS1      c55       2
    RHS1      c56       3
    RHS1      c57       3
    RHS1      c58       2
    RHS1      c59       3
    RHS1      c60       3
    RHS1      c61       3
    RHS1      c62       2
    RHS1      c63       3
    RHS1      c64       3
    RHS1      c65       3
    RHS1      c66       2
    RHS1      c67       3
    RHS1      c68       3
    RHS1      c69       3
    RHS1      c82       1
    RHS1      c83       1
    RHS1      c84       2
    RHS1      c85       1
    RHS1      c86       1
    RHS1      c87       1
    RHS1      c88       2
    RHS1      c89       1
    RHS1      c90       1
    RHS1      c91       1
    RHS1      c92       2
    RHS1      c93       1
    RHS1      c130      1
    RHS1      c131      1
    RHS1      c132      1
    RHS1      c145      1
    RHS1      c146      1
    RHS1      c147      1
    RHS1      c148      1
    RHS1      c149      1
    RHS1      c150      1
    RHS1      c151      1
    RHS1      c152      1
    RHS1      c153      1
    RHS1      c154      1
    RHS1      c155      1
    RHS1      c156      1
BOUNDS
 BV BND1      x[0,0,0]
 BV BND1      x[0,0,1]
 BV BND1      x[0,0,2]
 BV BND1      x[0,1,0]
 BV BND1      x[0,1,1]
 BV BND1      x[0,1,2]
 BV BND1      x[1,0,0]
 BV BND1      x[1,0,1]
 BV BND1      x[1,0,2]
 BV BND1      x[2,0,0]
 BV BND1      x[2,0,1]
 BV BND1      x[2,0,2]
 BV BND1      y[0,0,0]
 BV BND1      y[0,0,1]
 BV BND1      y[0,0,2]
 BV BND1      y[0,1,0]
 BV BND1      y[0,1,1]
 BV BND1      y[0,1,2]
 BV BND1      y[1,0,0]
 BV BND1      y[1,0,1]
 BV BND1      y[1,0,2]
 BV BND1      y[2,0,0]
 BV BND1      y[2,0,1]
 BV BND1      y[2,0,2]
 BV BND1      z1[0,0,0]
 BV BND1      z2[0,0,0]
 BV BND1      z3[0,0,0]
 BV BND1      z4[0,0,0]
 BV BND1      z1[0,0,1]
 BV BND1      z2[0,0,1]
 BV BND1      z3[0,0,1]
 BV BND1      z4[0,0,1]
 BV BND1      z1[0,0,2]
 BV BND1      z2[0,0,2]
 BV BND1      z3[0,0,2]
 BV BND1      z4[0,0,2]
 BV BND1      z1[0,1,0]
 BV BND1      z2[0,1,0]
 BV BND1      z3[0,1,0]
 BV BND1      z4[0,1,0]
 BV BND1      z1[0,1,1]
 BV BND1      z2[0,1,1]
 BV BND1      z3[0,1,1]
 BV BND1      z4[0,1,1]
 BV BND1      z1[0,1,2]
 BV BND1      z2[0,1,2]
 BV BND1      z3[0,1,2]
 BV BND1      z4[0,1,2]
 BV BND1      z1[1,0,0]
 BV BND1      z2[1,0,0]
 BV BND1      z3[1,0,0]
 BV BND1      z4[1,0,0]
 BV BND1      z1[1,0,1]
 BV BND1      z2[1,0,1]
 BV BND1      z3[1,0,1]
 BV BND1      z4[1,0,1]
 BV BND1      z1[1,0,2]
 BV BND1      z2[1,0,2]
 BV BND1      z3[1,0,2]
 BV BND1      z4[1,0,2]
 BV BND1      z1[2,0,0]
 BV BND1      z2[2,0,0]
 BV BND1      z3[2,0,0]
 BV BND1      z4[2,0,0]
 BV BND1      z1[2,0,1]
 BV BND1      z2[2,0,1]
 BV BND1      z3[2,0,1]
 BV BND1      z4[2,0,1]
 BV BND1      z1[2,0,2]
 BV BND1      z2[2,0,2]
 BV BND1      z3[2,0,2]
 BV BND1      z4[2,0,2]
 BV BND1      u[0,0,0]
 BV BND1      u[0,0,1]
 BV BND1      u[0,0,2]
 BV BND1      u[0,1,0]
 BV BND1      u[0,1,1]
 BV BND1      u[0,1,2]
 BV BND1      u[1,0,0]
 BV BND1      u[1,0,1]
 BV BND1      u[1,0,2]
 BV BND1      u[2,0,0]
 BV BND1      u[2,0,1]
 BV BND1      u[2,0,2]
 FX BND1      h[0,0]    4
 UP BND1      h[0,1]    4
 UP BND1      h[0,2]    4
 FX BND1      h[1,0]    4
 UP BND1      h[1,1]    4
 UP BND1      h[1,2]    4
 UP BND1      e[0]      24
 UP BND1      e[1]      24
 UP BND1      e[2]      24
ENDATA
